CapLotSizing_PM/src/Instancias/NCLSLT/6i6p4m/NBB09.OUT
 CG ITER, OVMR, OVMRUB =           1   15424.4619141    9257.6982422
 CG ITER, OVMR, OVMRUB =           2   15424.4619141    9257.6982422
 CG ITER, OVMR, OVMRUB =           3   15424.4619141    9257.6982422
 CG ITER, OVMR, OVMRUB =           4   15424.4619141    9257.6982422
 CG ITER, OVMR, OVMRUB =           5   15424.4619141    9257.6982422
 CG ITER, OVMR, OVMRUB =           6   15424.4619141    9257.6982422
 CG ITER, OVMR, OVMRUB =           7   15424.4619141    9257.6982422
 CG ITER, OVMR, OVMRUB =           8   15424.4619141    9257.6982422
 CG ITER, OVMR, OVMRUB =           9   15424.4619141    9257.6982422
 CG ITER, OVMR, OVMRUB =          10   15424.4619141    9257.6982422
OVLB =   15424.4619141 OVLUB =    9257.6982422 TIME =       0.1400000
